(declare-fun temp2733_1 () (_ BitVec 64))
(declare-fun var140390 () (_ BitVec 64))
(declare-fun temp2733_3 () (_ BitVec 64))
(declare-fun temp2733_2 () (_ BitVec 64))
(declare-fun temp2733_4 () (_ BitVec 64))
(declare-fun var2565548 () (_ BitVec 64))
(declare-fun temp2733_5 () (_ BitVec 64))
(declare-fun var2634158 () (_ BitVec 64))
(declare-fun temp2733_7 () (_ BitVec 64))
(declare-fun temp2733_6 () (_ BitVec 64))
(declare-fun temp2733_9 () (_ BitVec 64))
(declare-fun temp2733_8 () (_ BitVec 64))
(declare-fun temp2733_11 () (_ BitVec 64))
(declare-fun temp2733_10 () (_ BitVec 64))
(declare-fun temp2733_13 () (_ BitVec 64))
(declare-fun temp2733_12 () (_ BitVec 64))
(declare-fun temp2733_14 () (_ BitVec 64))
(declare-fun var2634159 () (_ BitVec 64))
(declare-fun temp2733_15 () (_ BitVec 64))
(declare-fun var4792923 () (_ BitVec 64))
(declare-fun temp2733_16 () (_ BitVec 64))
(declare-fun var77802 () (_ BitVec 64))
(declare-fun temp2733_17 () (_ BitVec 64))
(declare-fun var77803 () (_ BitVec 64))
(declare-fun temp2733_18 () (_ BitVec 64))
(declare-fun temp2733_19 () (_ BitVec 64))
(declare-fun var77861 () (_ BitVec 64))
(declare-fun temp2733_21 () (_ BitVec 64))
(declare-fun temp2733_20 () (_ BitVec 64))
(declare-fun temp2733_22 () (_ BitVec 64))
(declare-fun var5381789 () (_ BitVec 64))
(declare-fun temp2733_23 () (_ BitVec 64))
(declare-fun var77862 () (_ BitVec 64))
(declare-fun temp2733_25 () (_ BitVec 64))
(declare-fun temp2733_24 () (_ BitVec 64))
(declare-fun temp2733_26 () (_ BitVec 64))
(declare-fun var5447325 () (_ BitVec 64))
(assert (= temp2733_1 #x0000000000000000))
(assert (= var140390 temp2733_1))
(assert (= temp2733_3 #xffffffffffffffff))
(assert (= temp2733_2 temp2733_3))
(assert (= temp2733_4 #x0000000000000000))
(assert (= var2565548 temp2733_4))
(assert (= temp2733_5 #x0000000000000000))
(assert (= var2634158 temp2733_5))
(assert (= temp2733_7 #x0000000000000001))
(assert (= temp2733_6 temp2733_7))
(assert (= temp2733_9 #x0000000000000000))
(assert (= temp2733_8 temp2733_9))
(assert (= temp2733_11 #x0000000000000001))
(assert (= temp2733_10 temp2733_11))
(assert (= temp2733_13 #x0000000000000001))
(assert (= temp2733_12 temp2733_13))
(assert (= temp2733_14 #x0000000000000001))
(assert (= var2634159 (bvadd var2634158 temp2733_14)))
(assert (= temp2733_15 #x0000000000000001))
(assert (= var4792923 temp2733_15))
(assert (= temp2733_16 #x0000000000000014))
(assert (= var77802 temp2733_16))
(assert (= temp2733_17 #x0000000000000014))
(assert (= var77803
   (ite (= var77802 temp2733_17) #x0000000000000001 #x0000000000000000)))
(assert (= temp2733_18 #x0000000000000001))
(assert (= var77803 temp2733_18))
(assert (= temp2733_19 #x0000000000000000))
(assert (= var77861 temp2733_19))
(assert (= temp2733_21 #x0000000000000001))
(assert (= temp2733_20 temp2733_21))
(assert (= temp2733_22 #x0000000000000002))
(assert (= var5381789 temp2733_22))
(assert (= temp2733_23 #x0000000000000001))
(assert (= var77862 (bvadd var77861 temp2733_23)))
(assert (= temp2733_25 #x0000000000000001))
(assert (= temp2733_24 temp2733_25))
(assert (= temp2733_26 #x0000000000000002))
(assert (= var5447325 temp2733_26))
(model-add temp2733_1 () (_ BitVec 64) #x0000000000000000)
(model-add var140390 () (_ BitVec 64) #x0000000000000000)
(model-add temp2733_3 () (_ BitVec 64) #xffffffffffffffff)
(model-add temp2733_2 () (_ BitVec 64) #xffffffffffffffff)
(model-add temp2733_4 () (_ BitVec 64) #x0000000000000000)
(model-add var2565548 () (_ BitVec 64) #x0000000000000000)
(model-add temp2733_5 () (_ BitVec 64) #x0000000000000000)
(model-add var2634158 () (_ BitVec 64) #x0000000000000000)
(model-add temp2733_7 () (_ BitVec 64) #x0000000000000001)
(model-add temp2733_6 () (_ BitVec 64) #x0000000000000001)
(model-add temp2733_9 () (_ BitVec 64) #x0000000000000000)
(model-add temp2733_8 () (_ BitVec 64) #x0000000000000000)
(model-add temp2733_11 () (_ BitVec 64) #x0000000000000001)
(model-add temp2733_10 () (_ BitVec 64) #x0000000000000001)
(model-add temp2733_13 () (_ BitVec 64) #x0000000000000001)
(model-add temp2733_12 () (_ BitVec 64) #x0000000000000001)
(model-add temp2733_14 () (_ BitVec 64) #x0000000000000001)
(model-add var2634159 () (_ BitVec 64) #x0000000000000001)
(model-add temp2733_15 () (_ BitVec 64) #x0000000000000001)
(model-add var4792923 () (_ BitVec 64) #x0000000000000001)
(model-add temp2733_16 () (_ BitVec 64) #x0000000000000014)
(model-add var77802 () (_ BitVec 64) #x0000000000000014)
(model-add temp2733_17 () (_ BitVec 64) #x0000000000000014)
(model-add var77803 () (_ BitVec 64) #x0000000000000001)
(model-add temp2733_18 () (_ BitVec 64) #x0000000000000001)


